(declare-rel fail ())
(declare-rel inv2 (Int Int Int Int Int Int))
(declare-var A Int)
(declare-var B Int)
(declare-var C Int)
(declare-var D Int)
(declare-var E Int)
(declare-var F Int)
(declare-var G Int)
(declare-var H Int)
(declare-var I Int)
(rule (=> (and (= G 0) (>= D C) (= I 0) (= C (* C A)) (= 1 A)) (inv2 G D I C A A)))
(rule (let ((a!1 (= F (ite (<= D (div G 50)) (+ I A) I))))
  (=> (and (inv2 G D I C A A) (= E (+ A G)) (= H (- D A)) a!1)
      (inv2 E H F C A A))))
(rule (=> (and (inv2 G D I C A A) (= D 0) (not (> I 0))) fail))
(query fail)

